
Gurobi 13.0.2 (win64) logging started Thu Jul 23 16:57:57 2026

Set parameter LogFile to value "E:\codes\ExactEBRP\results\gf_gurobi_performance_recovery_round29\runs\stage2__moderate_seed5301__c3_replica__300s\external\native_logs\R.0.0.0.1.1.0.1.1_lp.gurobi.log"
Gurobi Optimizer version 13.0.2 build v13.0.2rc1 (win64 - Windows 10.0 (19045.2))

CPU model: 12th Gen Intel(R) Core(TM) i7-12700KF, instruction set [SSE2|AVX|AVX2]
Thread count: 12 physical cores, 20 logical processors, using up to 1 threads

Non-default parameters:
TimeLimit  1.2508548640000001e+02
MIPGap  0
MIPGapAbs  0
LogToConsole  0
Threads  1

Optimize a model with 11944 rows, 3386 columns and 67436 nonzeros (Min)
Model fingerprint: 0x673aaad4
Model has 21 linear objective coefficients
Coefficient statistics:
  Matrix range     [9e-03, 1e+04]
  Objective range  [9e-03, 1e+00]
  Bounds range     [2e-02, 2e+02]
  RHS range        [2e-02, 5e+04]

Presolve removed 546 rows and 102 columns
Presolve time: 0.03s
Presolved: 11398 rows, 3396 columns, 65837 nonzeros

Iteration    Objective       Primal Inf.    Dual Inf.      Time
       0    1.7809172e-02   2.297583e+02   0.000000e+00      0s
    3821    7.9500583e-02   0.000000e+00   0.000000e+00      0s

Solved in 3821 iterations and 0.31 seconds (0.95 work units)
Optimal objective  7.950058311e-02

User-callback calls 3965, time in user-callback 0.00 sec
